p cnf 27 144
4 7 11 16 22 29 37 46 56 0
8 12 17 23 30 38 47 57 68 0
13 18 24 31 39 48 58 69 81 0
-4 -8 0
-7 -12 0
-11 -17 0
-16 -23 0
-22 -30 0
-29 -38 0
-37 -47 0
-46 -57 0
-56 -68 0
-4 -13 0
-7 -18 0
-11 -24 0
-16 -31 0
-22 -39 0
-29 -48 0
-37 -58 0
-46 -69 0
-56 -81 0
-8 -13 0
-12 -18 0
-17 -24 0
-23 -31 0
-30 -39 0
-38 -48 0
-47 -58 0
-57 -69 0
-68 -81 0
-4 -38 0
-4 -57 0
-7 -17 0
-7 -23 0
-7 -47 0
-7 -57 0
-11 -30 0
-11 -38 0
-11 -47 0
-16 -30 0
-16 -38 0
-16 -47 0
-16 -68 0
-22 -47 0
-22 -57 0
-22 -68 0
-29 -57 0
-37 -57 0
-46 -68 0
-4 -48 0
-4 -69 0
-7 -24 0
-7 -31 0
-7 -58 0
-7 -69 0
-11 -39 0
-11 -48 0
-11 -58 0
-16 -39 0
-16 -48 0
-16 -58 0
-16 -81 0
-22 -58 0
-22 -69 0
-22 -81 0
-29 -69 0
-37 -69 0
-46 -81 0
-8 -29 0
-8 -46 0
-12 -11 0
-12 -16 0
-12 -37 0
-12 -46 0
-17 -22 0
-17 -29 0
-17 -37 0
-23 -22 0
-23 -29 0
-23 -37 0
-23 -56 0
-30 -37 0
-30 -46 0
-30 -56 0
-38 -46 0
-47 -46 0
-57 -56 0
-8 -48 0
-8 -69 0
-12 -24 0
-12 -31 0
-12 -58 0
-12 -69 0
-17 -39 0
-17 -48 0
-17 -58 0
-23 -39 0
-23 -48 0
-23 -58 0
-23 -81 0
-30 -58 0
-30 -69 0
-30 -81 0
-38 -69 0
-47 -69 0
-57 -81 0
-13 -29 0
-13 -46 0
-18 -11 0
-18 -16 0
-18 -37 0
-18 -46 0
-24 -22 0
-24 -29 0
-24 -37 0
-31 -22 0
-31 -29 0
-31 -37 0
-31 -56 0
-39 -37 0
-39 -46 0
-39 -56 0
-48 -46 0
-58 -46 0
-69 -56 0
-13 -38 0
-13 -57 0
-18 -17 0
-18 -23 0
-18 -47 0
-18 -57 0
-24 -30 0
-24 -38 0
-24 -47 0
-31 -30 0
-31 -38 0
-31 -47 0
-31 -68 0
-39 -47 0
-39 -57 0
-39 -68 0
-48 -57 0
-58 -57 0
-69 -68 0
